NAME : n80w160.002.654.tour
COMMENT : Length = 654
COMMENT : Found by LKH [Keld Helsgaun] Tue Nov  7 19:39:55 2017
TYPE : TOUR
DIMENSION : 81
TOUR_SECTION
1
35
27
52
10
2
47
61
21
38
78
45
25
58
4
71
6
50
19
17
16
13
72
60
51
62
40
64
24
11
20
3
8
63
22
80
39
79
65
54
37
26
68
77
18
31
49
53
7
43
5
9
34
73
46
15
36
75
14
44
55
66
48
32
67
57
56
33
41
76
42
30
59
29
23
74
69
12
70
28
81
-1
EOF
